\ This file has been generated by DOcplex
\ ENCODING=ISO-8859-1
\Problem name: tiger problem

Maximize
 obj: V
Subject To
 c1: V + 2 a0_0 + 100.893423602306 a0_1 - 8.893423602306 a0_2 <= 0
 c2: a0_0 + a0_1 + a0_2 = 1
 c3: V + 100.893423602306 a0_0 + 49.932178656013 a0_1 + 100 a0_2 <= 0
 c4: a0_0 + a0_1 + a0_2 = 1
 c5: V - 8.893423602306 a0_0 + 100 a0_1 - 19.932178656013 a0_2 <= 0
 c6: a0_0 + a0_1 + a0_2 = 1
 c7: V + 2 a1_0 + 100.893423602306 a1_1 - 8.893423602306 a1_2 <= 0
 c8: a1_0 + a1_1 + a1_2 = 1
 c9: V + 100.893423602306 a1_0 + 49.932178656013 a1_1 + 100 a1_2 <= 0
 c10: a1_0 + a1_1 + a1_2 = 1
 c11: V - 8.893423602306 a1_0 + 100 a1_1 - 19.932178656013 a1_2 <= 0
 c12: a1_0 + a1_1 + a1_2 = 1

Bounds
       a0_0 <= 1
       a0_1 <= 1
       a0_2 <= 1
       a1_0 <= 1
       a1_1 <= 1
       a1_2 <= 1
End
